44 97 99 78 90 79 61 85 93 74 92 91 81 54 34 70 65 89 80 49 66 76 77 67 83 39 73 56 35 86 59 47 41 55 51 53 52 50 48 43 42 40 46 29 32 37 26 18 25 36 19 17 16 38 33 31 28 14 24 30 23 15 20 13 12 11 10 22 9 8 7 6 5 3 2 1 0 57 58 62 69 72 64 45 63 68 82 71 60 75 84 87 88 94 95 98 96 21 4 27 

